Cl4Li24P4S20 E=-214.253754 eV
 1.0000000000000000
    10.2794980000000002    0.0000000000000000    0.0000000000000000
     0.0000000000000000   10.2794980000000002    0.0000000000000000
     0.0000000000000000    0.0000000000000000   10.2794980000000002
 Li  P   S   Cl 
  24   4  20   4
Cartesian
  2.5698745000000001  2.5698745000000001  0.2375900372740000
  2.5698745000000001  2.5698745000000001  4.9021589627260012
  2.5698745000000001  4.9021589627260012  2.5698745000000001
  2.5698745000000001  0.2375900372740000  2.5698745000000001
  0.2375900372740000  2.5698745000000001  2.5698745000000001
  4.9021589627260012  2.5698745000000001  2.5698745000000001
  2.5698745000000001  7.7096235000000002  5.3773390372740009
  2.5698745000000001  7.7096235000000002 10.0419079627260004
  2.5698745000000001 10.0419079627260004  7.7096235000000002
  2.5698745000000001  5.3773390372740009  7.7096235000000002
  0.2375900372740000  7.7096235000000002  7.7096235000000002
  4.9021589627260012  7.7096235000000002  7.7096235000000002
  7.7096235000000002  2.5698745000000001  5.3773390372740009
  7.7096235000000002  2.5698745000000001 10.0419079627260004
  7.7096235000000002  4.9021589627260012  7.7096235000000002
  7.7096235000000002  0.2375900372740000  7.7096235000000002
  5.3773390372740009  2.5698745000000001  7.7096235000000002
 10.0419079627260004  2.5698745000000001  7.7096235000000002
  7.7096235000000002  7.7096235000000002  0.2375900372740000
  7.7096235000000002  7.7096235000000002  4.9021589627260012
  7.7096235000000002 10.0419079627260004  2.5698745000000001
  7.7096235000000002  5.3773390372740009  2.5698745000000001
  5.3773390372740009  7.7096235000000002  2.5698745000000001
 10.0419079627260004  7.7096235000000002  2.5698745000000001
  5.1397490000000001  0.0000000000000000  0.0000000000000000
  5.1397490000000001  5.1397490000000001  5.1397490000000001
  0.0000000000000000  0.0000000000000000  5.1397490000000001
  0.0000000000000000  5.1397490000000001  0.0000000000000000
  1.1875115601903403  3.9522374398096600  9.0919864398096610
  9.0919864398096610  3.9522374398096600  1.1875115601903403
  3.9522374398096600  1.1875115601903403  9.0919864398096610
  6.3272605601903402  1.1875115601903403  1.1875115601903403
  2.5698745000000001  2.5698745000000001  2.5698745000000001
  1.1875115601903403  9.0919864398096610  3.9522374398096600
  9.0919864398096610  9.0919864398096610  6.3272605601903402
  3.9522374398096600  6.3272605601903402  3.9522374398096600
  6.3272605601903402  6.3272605601903402  6.3272605601903402
  2.5698745000000001  7.7096235000000002  7.7096235000000002
  6.3272605601903402  3.9522374398096600  3.9522374398096600
  3.9522374398096600  3.9522374398096600  6.3272605601903402
  9.0919864398096610  1.1875115601903403  3.9522374398096600
  1.1875115601903403  1.1875115601903403  6.3272605601903402
  7.7096235000000002  2.5698745000000001  7.7096235000000002
  6.3272605601903402  9.0919864398096610  9.0919864398096610
  3.9522374398096600  9.0919864398096610  1.1875115601903403
  9.0919864398096610  6.3272605601903402  9.0919864398096610
  1.1875115601903403  6.3272605601903402  1.1875115601903403
  7.7096235000000002  7.7096235000000002  2.5698745000000001
  0.0000000000000000  0.0000000000000000  0.0000000000000000
  0.0000000000000000  5.1397490000000001  5.1397490000000001
  5.1397490000000001  0.0000000000000000  5.1397490000000001
  5.1397490000000001  5.1397490000000001  0.0000000000000000
