Li P  S  Cl
 1.0000000000000000
    10.2794980000000002    0.0000000000000000    0.0000000000000000
     0.0000000000000000   10.2794980000000002    0.0000000000000000
     0.0000000000000000    0.0000000000000000   10.2794980000000002
 Li  P   S   Cl 
  24   4  20   4
Cartesian
  2.5947102076505617  2.5629612849414407  0.2699744641790346
  2.6460259928204013  2.5581668312638333  4.8904521148785420
  2.6488351407753696  4.9405306991836468  2.5464007807032525
  2.5970025021792984  0.2144191526333769  2.5465880123214872
  0.2496881508523017  2.4742104877671101  2.4836286083743486
  4.8740445862639525  2.5192329439832788  2.5855868666297637
  2.5244732962239396  7.6390083149332355  5.4506214757200784
  2.5585856849756734  7.7129999102343962  9.9706705534153279
  2.5426553637737408 10.0474540922114937  7.6520738211288855
  2.5886594009172836  5.3473071027780605  7.6950388125103366
  0.2075047066625302  7.8022374092254472  7.7089486387631032
  4.8492734162782059  7.7507507456051599  7.6485813175014492
  7.7200666797502375  2.4718909938060114  5.3109297348290792
  7.7194665617934568  2.6067978289997704 10.0504763767854985
  7.7038410858805886  4.8871037779465363  7.6356974004816287
  7.6736312895802650  0.2145580987260106  7.7624796113109458
  5.3945199517524243  2.4817224922318633  7.7258276984697396
 10.0226538487051844  2.5360283999847022  7.7402073144420438
  7.7611734761247977  7.7561875059558103  0.1956291611128681
  7.6941628812074399  7.7261866715701784  4.9509362190821191
  7.6856647881077356 10.0326250138928099  2.5145577512996988
  7.6498131687959665  5.4179653283937110  2.6376865014285413
  5.3737385311949843  7.7598001448946015  2.5879563012523819
 10.0096519749957444  7.7276932802754210  2.6467763283232983
  5.1379576980445023  0.0782321827907003 -0.1309872552044872
  5.1808441252187611  5.1441013534119087  5.1247986324767068
  0.0045880388267751 -0.0993784457300446  5.1287654056081244
  0.0178556285755873  5.2136437022370758 -0.0259135109136824
  1.1470868800456810  3.9271495876304332  9.1377565456947654
  9.1084239952926449  3.9257494296213080  1.2131749318460081
  3.9570913172770621  1.2359438097169848  9.0568837851157937
  6.3108774528604519  1.1679061525337324  1.1143358127837344
  2.5846805138532289  2.5829272636089944  2.5701301728321231
  1.1757822035215830  9.0212179027071411  3.9312051736713922
  9.0748507139833219  9.0518725763485808  6.3191962746070400
  3.9724399826503869  6.4215698552508664  3.9609663304512521
  6.3401380797264784  6.3235382644020319  6.2313219994253881
  2.5685488062275392  7.7126350104970518  7.8327856056242648
  6.3176425119512842  3.9673148069263409  3.9505018513243977
  3.8938035379286835  4.0093785805354107  6.3648572118246793
  9.1315380371618140  1.1420421874506035  4.0223771553564651
  1.1174190070507262  1.2168544148803537  6.4367833414808393
  7.6600966837434656  2.5415596135198615  7.7146060682543824
  6.3020867774845302  9.0144532682563536  9.0954145885499624
  3.8991222541233546  9.1156660613414200  1.1415403484786502
  9.1694831600605387  6.2880978955735287  9.0758833639993775
  1.2281874210588237  6.2657173443686425  1.1988845569205469
  7.7749806377141217  7.6292493382719391  2.5791061929266155
  0.0129941397124212  0.0390911435888655 -0.0618475355439041
 -0.0660228306542138  5.1658460782808451  5.1545982336616598
  5.1522736425172937  0.0173224104748488  5.1057477639210758
  5.1513616848580499  5.1544026236649341 -0.0357175709013184
